12 48 6 10
18 3 9 15 4 10 9 9 17 12 15 15 4 12 19 8 4 11 9 13 18 6 15 6 12 5 8 6 4 12 20 18 9 15 20 19 2 2 10 16 5 4 18 10 9 14 14 15 
5.75 5.81 0.85 5.92 7.63 3.35 0.14 7.43 4.82 3.23 4.79 1.88 0.79 4.16 4.16 3.02 5.74 3.05 5.14 7.48 4.9 6.37 5.53 5.72 4.26 5.84 7.64 1.01 6.13 3.71 7.22 1.71 3.31 2.58 2.76 5.87 3.44 1.64 1.85 6.91 5.59 5.12 4.96 3.68 1.76 5.81 1.74 3.91 
2.94 1.68 4.97 1.74 5.41 7.23 5.37 6.4 1.8 0.04 6.52 5.93 7.73 5.02 1.06 6.15 4.09 4.3 6.68 5.11 7.65 3.94 5.81 2.15 2.1 6.69 1.44 5.05 4.3 2.63 3.24 0.27 5.16 6.97 0.63 6.18 4.16 4.4 3.51 5.55 0.74 5.85 3.63 2.01 6.36 7.34 4.9 6.56 
1.75 3.21 0.17 1.39 0.99 3.55 5.3 2.22 6.16 0.22 4.02 5.87 5.51 6.51 4.47 3.28 3.41 4.57 7.57 3.65 2.81 0.13 6.39 0.45 5.09 3.96 2.7 2.92 3.15 4.12 7.59 3.33 4.53 6.54 6.5 5.05 5.03 2.93 3.41 4.54 5.61 5.53 1.36 3.62 2.03 2.03 8 6.08 
0.64 3.23 1.57 7.62 7.45 1.1 7.03 2.36 1.87 6.16 2.12 7.18 7.35 4.56 1.49 4.78 0.58 6.96 7.31 4.32 6.99 7.37 7.79 7.73 5.04 7.11 3.07 3.94 5.32 3.84 1.67 0.65 0.9 7.38 2.1 7.04 5.25 7.6 1.4 4.53 3.61 4.83 2.4 3.5 4.72 5.5 6.35 3.06 
1.64 2.05 7.44 7.81 6.57 2.93 2.21 0.66 4.27 7.34 0.67 6.32 3.64 0.07 2.51 0.65 6.72 0.59 4.51 0.15 1.62 1.13 3.4 7.91 7.44 2.3 1.61 4.85 5.55 7.82 5.55 3.46 3.4 0.77 0.92 0.4 6.06 7.45 0.8 7.44 3.71 0.31 5.41 3.61 7.56 6.09 6.69 1.45 
2.06 3.37 4.99 3.58 1.39 0.63 3.2 2.8 5.17 0.92 0.96 2.75 3.75 2.66 7.09 5.07 2.57 6.92 1.28 2.38 4.8 4.31 6.73 2.24 3.04 6.4 3.72 0.16 2.55 2.04 2.76 0.84 6.67 6.96 0.81 5.92 1.74 6.62 0.73 2.22 7.32 6.26 7.88 5.11 5.67 1.34 2.48 7.02 
4 4 4 4 4 4 4 4 4 4 4 4 4 4 4 4 4 4 4 4 4 4 4 4 4 4 4 4 4 4 4 4 4 4 4 4 4 4 4 4 4 4 4 4 4 4 4 4 
5.77 2.47 2.71 7.78 7.87 3.47 6.3 4.76 3.09 5.07 5.6 4.68 7.61 6.1 6.42 2.84 0.14 5.19 6.7 3.38 0.47 4.4 6.09 6.53 5.36 1.17 3.48 3.8 1.17 0.54 0.48 0.7 1.32 5.95 7.8 0.82 0.49 3.27 3.15 4.85 0.53 0.79 2.47 1.03 3.28 0.45 2.08 3.65 
2.78 2.52 7.96 4.32 3.96 2.32 7.92 0.63 3.72 5.81 1.24 2.32 5.43 0.23 6.98 4.4 6.51 1.93 4.41 4.33 2.32 0.25 7.79 3.61 0.19 7.45 5.77 3.76 4.54 6.34 5.07 1.27 3.04 5.46 2.98 0.21 6.7 7.86 2.51 0.87 2.56 6.59 4.89 1.75 0.64 4.43 2.22 5.92 
3.11 1.47 3.29 6.6 0.25 5.58 7.28 3.02 7.37 3.62 2.71 3.52 0.5 0.57 7.27 3.41 2.23 5.55 5.26 3.05 5.39 0.18 7.7 2.08 4.31 7.12 2.47 2.02 7.59 7.41 6.85 0.5 6.72 2.83 1.41 4.04 6.48 3.62 7.14 1.68 0.66 0.48 3.28 1.97 6.28 3.59 0.69 3.06 
4.32 7.49 2.64 1.08 0.51 1.79 0.73 7.92 1.74 7.23 1.6 1.19 6.87 7.46 2.2 5.12 5.26 1.47 4.8 1.35 7.33 1.81 5.57 4.42 6.24 1.03 7.68 1.75 3.23 4 7.99 6.92 7.31 7.24 1.15 6.16 1.43 4.5 0.71 7.28 6.6 6.17 5.01 4.99 3.11 1.22 0.71 3.22 
3.9 7.88 2.36 5.89 3.35 1.92 3.43 4.54 3.94 0.19 0.52 2.78 3.61 6.67 3.49 5.56 7.19 1.85 5.52 0.61 7.18 5.03 2.83 2.5 3.74 6.33 6.97 0.12 7.93 3.98 6.08 2.57 7.06 4.52 2.74 3.98 2.51 6.86 7.54 4.82 0.03 5.24 0.22 5.93 3.46 3.4 6.55 7.64 
1 1 1 1 1 1 1 1 1 1 1 1 1 1 1 1 1 1 1 1 1 1 1 1 1 1 1 1 1 1 1 1 1 1 1 1 1 1 1 1 1 1 1 1 1 1 1 1 
1 1 1 1 1 1 1 1 1 1 1 1 1 1 1 1 1 1 1 1 1 1 1 1 1 1 1 1 1 1 1 1 1 1 1 1 1 1 1 1 1 1 1 1 1 1 1 1 
1 1 1 1 1 1 1 1 1 1 1 1 1 1 1 1 1 1 1 1 1 1 1 1 1 1 1 1 1 1 1 1 1 1 1 1 1 1 1 1 1 1 1 1 1 1 1 1 
1 1 1 1 1 1 1 1 1 1 1 1 1 1 1 1 1 1 1 1 1 1 1 1 1 1 1 1 1 1 1 1 1 1 1 1 1 1 1 1 1 1 1 1 1 1 1 1 
1 1 1 1 1 1 1 1 1 1 1 1 1 1 1 1 1 1 1 1 1 1 1 1 1 1 1 1 1 1 1 1 1 1 1 1 1 1 1 1 1 1 1 1 1 1 1 1 
1 1 1 1 1 1 1 1 1 1 1 1 1 1 1 1 1 1 1 1 1 1 1 1 1 1 1 1 1 1 1 1 1 1 1 1 1 1 1 1 1 1 1 1 1 1 1 1 
1 1 1 1 1 1 1 1 1 1 1 1 1 1 1 1 1 1 1 1 1 1 1 1 1 1 1 1 1 1 1 1 1 1 1 1 1 1 1 1 1 1 1 1 1 1 1 1 
1 1 1 1 1 1 1 1 1 1 1 1 1 1 1 1 1 1 1 1 1 1 1 1 1 1 1 1 1 1 1 1 1 1 1 1 1 1 1 1 1 1 1 1 1 1 1 1 
1 1 1 1 1 1 1 1 1 1 1 1 1 1 1 1 1 1 1 1 1 1 1 1 1 1 1 1 1 1 1 1 1 1 1 1 1 1 1 1 1 1 1 1 1 1 1 1 
1 1 1 1 1 1 1 1 1 1 1 1 1 1 1 1 1 1 1 1 1 1 1 1 1 1 1 1 1 1 1 1 1 1 1 1 1 1 1 1 1 1 1 1 1 1 1 1 
1 1 1 1 1 1 1 1 1 1 1 1 1 1 1 1 1 1 1 1 1 1 1 1 1 1 1 1 1 1 1 1 1 1 1 1 1 1 1 1 1 1 1 1 1 1 1 1 
1 1 1 1 1 1 1 1 1 1 1 1 1 1 1 1 1 1 1 1 1 1 1 1 1 1 1 1 1 1 1 1 1 1 1 1 1 1 1 1 1 1 1 1 1 1 1 1 
0.01 0.01 0.01 0.01 0.01 0.01 0.01 0.01 0.01 0.01 0.01 0.01 0.01 0.01 0.01 0.01 0.01 0.01 0.01 0.01 0.01 0.01 0.01 0.01 0.01 0.01 0.01 0.01 0.01 0.01 0.01 0.01 0.01 0.01 0.01 0.01 0.01 0.01 0.01 0.01 0.01 0.01 0.01 0.01 0.01 0.01 0.01 0.01 
0.02 0.02 0.02 0.02 0.02 0.02 0.02 0.02 0.02 0.02 0.02 0.02 0.02 0.02 0.02 0.02 0.02 0.02 0.02 0.02 0.02 0.02 0.02 0.02 0.02 0.02 0.02 0.02 0.02 0.02 0.02 0.02 0.02 0.02 0.02 0.02 0.02 0.02 0.02 0.02 0.02 0.02 0.02 0.02 0.02 0.02 0.02 0.02 
0.03 0.03 0.03 0.03 0.03 0.03 0.03 0.03 0.03 0.03 0.03 0.03 0.03 0.03 0.03 0.03 0.03 0.03 0.03 0.03 0.03 0.03 0.03 0.03 0.03 0.03 0.03 0.03 0.03 0.03 0.03 0.03 0.03 0.03 0.03 0.03 0.03 0.03 0.03 0.03 0.03 0.03 0.03 0.03 0.03 0.03 0.03 0.03 
0.04 0.04 0.04 0.04 0.04 0.04 0.04 0.04 0.04 0.04 0.04 0.04 0.04 0.04 0.04 0.04 0.04 0.04 0.04 0.04 0.04 0.04 0.04 0.04 0.04 0.04 0.04 0.04 0.04 0.04 0.04 0.04 0.04 0.04 0.04 0.04 0.04 0.04 0.04 0.04 0.04 0.04 0.04 0.04 0.04 0.04 0.04 0.04 
0.05 0.05 0.05 0.05 0.05 0.05 0.05 0.05 0.05 0.05 0.05 0.05 0.05 0.05 0.05 0.05 0.05 0.05 0.05 0.05 0.05 0.05 0.05 0.05 0.05 0.05 0.05 0.05 0.05 0.05 0.05 0.05 0.05 0.05 0.05 0.05 0.05 0.05 0.05 0.05 0.05 0.05 0.05 0.05 0.05 0.05 0.05 0.05 
0.06 0.06 0.06 0.06 0.06 0.06 0.06 0.06 0.06 0.06 0.06 0.06 0.06 0.06 0.06 0.06 0.06 0.06 0.06 0.06 0.06 0.06 0.06 0.06 0.06 0.06 0.06 0.06 0.06 0.06 0.06 0.06 0.06 0.06 0.06 0.06 0.06 0.06 0.06 0.06 0.06 0.06 0.06 0.06 0.06 0.06 0.06 0.06 
0.07 0.07 0.07 0.07 0.07 0.07 0.07 0.07 0.07 0.07 0.07 0.07 0.07 0.07 0.07 0.07 0.07 0.07 0.07 0.07 0.07 0.07 0.07 0.07 0.07 0.07 0.07 0.07 0.07 0.07 0.07 0.07 0.07 0.07 0.07 0.07 0.07 0.07 0.07 0.07 0.07 0.07 0.07 0.07 0.07 0.07 0.07 0.07 
0.2 0.2 0.2 0.2 0.2 0.2 0.2 0.2 0.2 0.2 0.2 0.2 0.2 0.2 0.2 0.2 0.2 0.2 0.2 0.2 0.2 0.2 0.2 0.2 0.2 0.2 0.2 0.2 0.2 0.2 0.2 0.2 0.2 0.2 0.2 0.2 0.2 0.2 0.2 0.2 0.2 0.2 0.2 0.2 0.2 0.2 0.2 0.2 
0.4 0.4 0.4 0.4 0.4 0.4 0.4 0.4 0.4 0.4 0.4 0.4 0.4 0.4 0.4 0.4 0.4 0.4 0.4 0.4 0.4 0.4 0.4 0.4 0.4 0.4 0.4 0.4 0.4 0.4 0.4 0.4 0.4 0.4 0.4 0.4 0.4 0.4 0.4 0.4 0.4 0.4 0.4 0.4 0.4 0.4 0.4 0.4 
0.6 0.6 0.6 0.6 0.6 0.6 0.6 0.6 0.6 0.6 0.6 0.6 0.6 0.6 0.6 0.6 0.6 0.6 0.6 0.6 0.6 0.6 0.6 0.6 0.6 0.6 0.6 0.6 0.6 0.6 0.6 0.6 0.6 0.6 0.6 0.6 0.6 0.6 0.6 0.6 0.6 0.6 0.6 0.6 0.6 0.6 0.6 0.6 
0.8 0.8 0.8 0.8 0.8 0.8 0.8 0.8 0.8 0.8 0.8 0.8 0.8 0.8 0.8 0.8 0.8 0.8 0.8 0.8 0.8 0.8 0.8 0.8 0.8 0.8 0.8 0.8 0.8 0.8 0.8 0.8 0.8 0.8 0.8 0.8 0.8 0.8 0.8 0.8 0.8 0.8 0.8 0.8 0.8 0.8 0.8 0.8 
1 1 1 1 1 1 1 1 1 1 1 1 1 1 1 1 1 1 1 1 1 1 1 1 1 1 1 1 1 1 1 1 1 1 1 1 1 1 1 1 1 1 1 1 1 1 1 1 
